db/inputs/1408720435186811971588305542302615527.smt2
(set-logic QF_FP)
(declare-const x0 (_ FloatingPoint 11 53))
(declare-const x1 (_ FloatingPoint 11 53))
(declare-const x2 (_ FloatingPoint 11 53))
(declare-const x3 (_ FloatingPoint 11 53))
(declare-const x4 (_ FloatingPoint 11 53))
(declare-const x5 (_ FloatingPoint 11 53))
(declare-const x6 (_ FloatingPoint 11 53))
(declare-const x7 (_ FloatingPoint 11 53))
(declare-const x8 (_ FloatingPoint 11 53))
(declare-const x9 (_ FloatingPoint 11 53))
(declare-const x10 (_ FloatingPoint 11 53))
(declare-const x11 (_ FloatingPoint 11 53))
(declare-const x12 (_ FloatingPoint 11 53))
(declare-const x13 (_ FloatingPoint 11 53))
(declare-const x14 (_ FloatingPoint 11 53))
(declare-const x15 (_ FloatingPoint 11 53))
(declare-const x16 (_ FloatingPoint 11 53))
(declare-const x17 (_ FloatingPoint 11 53))
(declare-const x18 (_ FloatingPoint 11 53))
(declare-const x19 (_ FloatingPoint 11 53))
(declare-const x20 (_ FloatingPoint 11 53))
(declare-const x21 (_ FloatingPoint 11 53))
(declare-const x22 (_ FloatingPoint 11 53))
(declare-const x23 (_ FloatingPoint 11 53))
(assert (fp.lt (fp.mul RNE x12 x23) (fp.mul RNE x2 x1)))
(assert (fp.lt (fp.div RNE x9 x8) (fp.add RNE x5 x11)))
(assert (fp.eq (fp.mul RNE x15 x11) (fp.sub RNE x6 x15)))
(assert (fp.gt (fp.mul RNE x12 x5) (fp.sub RNE x4 x22)))
(assert (fp.lt (fp.mul RNE x8 x23) (fp.sub RNE x20 x18)))
(assert (fp.gt (fp.sub RNE x20 x15) (fp.neg x19)))
(assert (fp.lt (fp.sub RNE x12 x1) (fp.mul RNE x6 x11)))
(assert (fp.leq (fp.neg x9) (fp.sub RNE x2 x6)))
(assert (fp.gt (fp.add RNE x3 x2) (fp.mul RNE x10 x19)))
(assert (fp.lt (fp.neg x9) (fp.mul RNE x10 x12)))
(assert (fp.lt (fp.sub RNE x17 x12) (fp.mul RNE x17 x3)))
(assert (fp.gt (fp.add RNE x16 x0) (fp.add RNE x11 x15)))
(assert (fp.gt (fp.sub RNE x2 x23) (fp.neg x7)))
(assert (fp.geq (fp.div RNE x1 x9) (fp.sub RNE x1 x12)))
(assert (fp.eq (fp.sub RNE x17 x10) (fp.div RNE x5 x9)))
(assert (fp.gt (fp.add RNE x17 x19) (fp.add RNE x11 x7)))
(assert (fp.eq (fp.sub RNE x22 x16) (fp.neg x14)))
(assert (fp.lt (fp.div RNE x16 x17) (fp.add RNE x1 x15)))
(check-sat)
