db/data/1408720435186811971588305542302615527.z3.out
-------------------
2500.105017892
